800
138907.0 79403.1
58526.0 148911.7
25703.0 157922.0
11657.0 159574.8
8590.0 159769.2
4892.0 159925.2
4010.0 159949.7
3200.0 159968.0
1579.0 159992.2
1122.0 159996.1
1102.0 159996.2
1001.0 159996.9
947.0 159997.2
932.0 159997.3
928.0 159997.3
926.0 159997.3
919.0 159997.4
917.0 159997.4
913.0 159997.4
908.0 159997.4
906.0 159997.4
890.0 159997.5
885.0 159997.6
882.0 159997.6
879.0 159997.6
872.0 159997.6
868.0 159997.6
865.0 159997.7
862.0 159997.7
851.0 159997.7
850.0 159997.7
844.0 159997.8
835.0 159997.8
833.0 159997.8
827.0 159997.9
825.0 159997.9
815.0 159997.9
812.0 159997.9
805.0 159998.0
802.0 159998.0
798.0 159998.0
796.0 159998.0
785.0 159998.1
783.0 159998.1
775.0 159998.1
773.0 159998.1
769.0 159998.2
768.0 159998.2
755.0 159998.2
752.0 159998.2
749.0 159998.2
740.0 159998.3
737.0 159998.3
736.0 159998.3
727.0 159998.3
726.0 159998.4
724.0 159998.4
720.0 159998.4
718.0 159998.4
707.0 159998.4
700.0 159998.5
692.0 159998.5
685.0 159998.5
683.0 159998.5
680.0 159998.6
676.0 159998.6
668.0 159998.6
661.0 159998.6
660.0 159998.6
655.0 159998.7
647.0 159998.7
643.0 159998.7
635.0 159998.7
633.0 159998.7
628.0 159998.8
620.0 159998.8
615.0 159998.8
612.0 159998.8
606.0 159998.9
603.0 159998.9
596.0 159998.9
593.0 159998.9
590.0 159998.9
586.0 159998.9
584.0 159998.9
571.0 159999.0
570.0 159999.0
569.0 159999.0
566.0 159999.0
563.0 159999.0
562.0 159999.0
550.0 159999.1
544.0 159999.1
530.0 159999.1
528.0 159999.1
522.0 159999.1
516.0 159999.2
512.0 159999.2
508.0 159999.2
500.0 159999.2
498.0 159999.2
493.0 159999.2
487.0 159999.3
481.0 159999.3
475.0 159999.3
473.0 159999.3
467.0 159999.3
466.0 159999.3
459.0 159999.3
453.0 159999.4
452.0 159999.4
444.0 159999.4
436.0 159999.4
435.0 159999.4
432.0 159999.4
426.0 159999.4
416.0 159999.5
414.0 159999.5
413.0 159999.5
412.0 159999.5
407.0 159999.5
399.0 159999.5
385.0 159999.5
382.0 159999.5
379.0 159999.6
374.0 159999.6
372.0 159999.6
365.0 159999.6
362.0 159999.6
361.0 159999.6
356.0 159999.6
340.0 159999.6
337.0 159999.6
333.0 159999.7
328.0 159999.7
324.0 159999.7
315.0 159999.7
311.0 159999.7
305.0 159999.7
304.0 159999.7
299.0 159999.7
290.0 159999.7
287.0 159999.7
282.0 159999.8
278.0 159999.8
276.0 159999.8
273.0 159999.8
266.0 159999.8
264.0 159999.8
258.0 159999.8
245.0 159999.8
241.0 159999.8
240.0 159999.8
234.0 159999.8
230.0 159999.8
222.0 159999.8
218.0 159999.9
212.0 159999.9
209.0 159999.9
201.0 159999.9
197.0 159999.9
196.0 159999.9
186.0 159999.9
185.0 159999.9
176.0 159999.9
172.0 159999.9
171.0 159999.9
164.0 159999.9
163.0 159999.9
159.0 159999.9
152.0 159999.9
150.0 159999.9
137.0 159999.9
133.0 159999.9
129.0 159999.9
128.0 159999.9
120.0 160000.0
114.0 160000.0
106.0 160000.0
105.0 160000.0
100.0 160000.0
94.0 160000.0
91.0 160000.0
83.0 160000.0
78.0 160000.0
70.0 160000.0
65.0 160000.0
61.0 160000.0
58.0 160000.0
56.0 160000.0
52.0 160000.0
40.0 160000.0
35.0 160000.0
34.0 160000.0
27.0 160000.0
24.0 160000.0
18.0 160000.0
14.0 160000.0
10.0 160000.0
9.0 160000.0
-3.0 160000.0
-10.0 160000.0
-18.0 160000.0
-20.0 160000.0
-28.0 160000.0
-30.0 160000.0
-32.0 160000.0
-38.0 160000.0
-40.0 160000.0
-51.0 160000.0
-53.0 160000.0
-56.0 160000.0
-62.0 160000.0
-65.0 160000.0
-76.0 160000.0
-81.0 160000.0
-87.0 160000.0
-92.0 160000.0
-95.0 160000.0
-101.0 160000.0
-102.0 160000.0
-106.0 160000.0
-116.0 160000.0
-123.0 160000.0
-125.0 160000.0
-127.0 159999.9
-134.0 159999.9
-136.0 159999.9
-147.0 159999.9
-149.0 159999.9
-150.0 159999.9
-155.0 159999.9
-161.0 159999.9
-168.0 159999.9
-170.0 159999.9
-179.0 159999.9
-180.0 159999.9
-188.0 159999.9
-195.0 159999.9
-199.0 159999.9
-210.0 159999.9
-213.0 159999.9
-214.0 159999.9
-216.0 159999.9
-221.0 159999.8
-227.0 159999.8
-234.0 159999.8
-239.0 159999.8
-244.0 159999.8
-248.0 159999.8
-255.0 159999.8
-258.0 159999.8
-260.0 159999.8
-266.0 159999.8
-271.0 159999.8
-281.0 159999.8
-283.0 159999.7
-288.0 159999.7
-294.0 159999.7
-298.0 159999.7
-300.0 159999.7
-311.0 159999.7
-314.0 159999.7
-323.0 159999.7
-324.0 159999.7
-326.0 159999.7
-332.0 159999.7
-339.0 159999.6
-343.0 159999.6
-345.0 159999.6
-356.0 159999.6
-358.0 159999.6
-361.0 159999.6
-365.0 159999.6
-377.0 159999.6
-381.0 159999.5
-384.0 159999.5
-387.0 159999.5
-391.0 159999.5
-395.0 159999.5
-401.0 159999.5
-412.0 159999.5
-413.0 159999.5
-415.0 159999.5
-421.0 159999.4
-427.0 159999.4
-431.0 159999.4
-439.0 159999.4
-440.0 159999.4
-448.0 159999.4
-452.0 159999.4
-463.0 159999.3
-468.0 159999.3
-474.0 159999.3
-481.0 159999.3
-484.0 159999.3
-485.0 159999.3
-488.0 159999.3
-490.0 159999.2
-497.0 159999.2
-500.0 159999.2
-506.0 159999.2
-512.0 159999.2
-518.0 159999.2
-520.0 159999.2
-527.0 159999.1
-533.0 159999.1
-535.0 159999.1
-544.0 159999.1
-548.0 159999.1
-550.0 159999.1
-557.0 159999.0
-565.0 159999.0
-568.0 159999.0
-571.0 159999.0
-580.0 159998.9
-585.0 159998.9
-586.0 159998.9
-590.0 159998.9
-596.0 159998.9
-605.0 159998.9
-607.0 159998.8
-613.0 159998.8
-616.0 159998.8
-627.0 159998.8
-630.0 159998.8
-632.0 159998.8
-639.0 159998.7
-643.0 159998.7
-648.0 159998.7
-654.0 159998.7
-655.0 159998.7
-660.0 159998.6
-665.0 159998.6
-671.0 159998.6
-679.0 159998.6
-687.0 159998.5
-688.0 159998.5
-695.0 159998.5
-697.0 159998.5
-701.0 159998.5
-709.0 159998.4
-710.0 159998.4
-726.0 159998.4
-728.0 159998.3
-731.0 159998.3
-735.0 159998.3
-737.0 159998.3
-740.0 159998.3
-745.0 159998.3
-753.0 159998.2
-755.0 159998.2
-761.0 159998.2
-770.0 159998.1
-775.0 159998.1
-777.0 159998.1
-782.0 159998.1
-787.0 159998.1
-792.0 159998.0
-798.0 159998.0
-801.0 159998.0
-808.0 159998.0
-811.0 159997.9
-815.0 159997.9
-825.0 159997.9
-829.0 159997.9
-831.0 159997.8
-837.0 159997.8
-844.0 159997.8
-846.0 159997.8
-850.0 159997.7
-861.0 159997.7
-864.0 159997.7
-873.0 159997.6
-876.0 159997.6
-880.0 159997.6
-882.0 159997.6
-886.0 159997.5
-894.0 159997.5
-900.0 159997.5
-903.0 159997.5
-905.0 159997.4
-910.0 159997.4
-919.0 159997.4
-930.0 159997.3
-938.0 159997.3
-985.0 159997.0
-999.0 159996.9
-1024.0 159996.7
-1051.0 159996.5
-1224.0 159995.3
-1271.0 159995.0
-1338.0 159994.4
-2179.0 159985.2
-2707.0 159977.1
-3780.0 159955.3
-4588.0 159934.2
-5469.0 159906.5
-24739.0 158075.9
-59318.0 148598.0
-83247.0 -136638.0
-62650.0 -147224.2
-22899.0 -158352.9
-2811.0 -159975.3
-1167.0 -159995.7
-1057.0 -159996.5
-1012.0 -159996.8
-978.0 -159997.0
-960.0 -159997.1
-957.0 -159997.1
-954.0 -159997.2
-952.0 -159997.2
-949.0 -159997.2
-937.0 -159997.3
-934.0 -159997.3
-928.0 -159997.3
-916.0 -159997.4
-913.0 -159997.4
-908.0 -159997.4
-903.0 -159997.5
-896.0 -159997.5
-892.0 -159997.5
-890.0 -159997.5
-880.0 -159997.6
-877.0 -159997.6
-876.0 -159997.6
-875.0 -159997.6
-860.0 -159997.7
-855.0 -159997.7
-853.0 -159997.7
-845.0 -159997.8
-840.0 -159997.8
-839.0 -159997.8
-838.0 -159997.8
-826.0 -159997.9
-823.0 -159997.9
-818.0 -159997.9
-817.0 -159997.9
-807.0 -159998.0
-800.0 -159998.0
-798.0 -159998.0
-791.0 -159998.0
-786.0 -159998.1
-784.0 -159998.1
-778.0 -159998.1
-775.0 -159998.1
-766.0 -159998.2
-763.0 -159998.2
-757.0 -159998.2
-751.0 -159998.2
-748.0 -159998.3
-740.0 -159998.3
-737.0 -159998.3
-735.0 -159998.3
-725.0 -159998.4
-721.0 -159998.4
-715.0 -159998.4
-712.0 -159998.4
-705.0 -159998.4
-704.0 -159998.5
-703.0 -159998.5
-697.0 -159998.5
-686.0 -159998.5
-681.0 -159998.6
-675.0 -159998.6
-673.0 -159998.6
-669.0 -159998.6
-663.0 -159998.6
-656.0 -159998.7
-651.0 -159998.7
-646.0 -159998.7
-644.0 -159998.7
-641.0 -159998.7
-631.0 -159998.8
-627.0 -159998.8
-622.0 -159998.8
-619.0 -159998.8
-613.0 -159998.8
-610.0 -159998.8
-609.0 -159998.8
-597.0 -159998.9
-590.0 -159998.9
-588.0 -159998.9
-582.0 -159998.9
-578.0 -159999.0
-572.0 -159999.0
-567.0 -159999.0
-560.0 -159999.0
-556.0 -159999.0
-555.0 -159999.0
-548.0 -159999.1
-540.0 -159999.1
-538.0 -159999.1
-531.0 -159999.1
-530.0 -159999.1
-528.0 -159999.1
-517.0 -159999.2
-516.0 -159999.2
-508.0 -159999.2
-503.0 -159999.2
-497.0 -159999.2
-495.0 -159999.2
-490.0 -159999.2
-482.0 -159999.3
-479.0 -159999.3
-473.0 -159999.3
-470.0 -159999.3
-468.0 -159999.3
-459.0 -159999.3
-451.0 -159999.4
-446.0 -159999.4
-440.0 -159999.4
-436.0 -159999.4
-431.0 -159999.4
-428.0 -159999.4
-420.0 -159999.4
-416.0 -159999.5
-413.0 -159999.5
-405.0 -159999.5
-401.0 -159999.5
-398.0 -159999.5
-392.0 -159999.5
-386.0 -159999.5
-382.0 -159999.5
-379.0 -159999.6
-376.0 -159999.6
-369.0 -159999.6
-367.0 -159999.6
-358.0 -159999.6
-355.0 -159999.6
-345.0 -159999.6
-344.0 -159999.6
-338.0 -159999.6
-331.0 -159999.7
-327.0 -159999.7
-326.0 -159999.7
-315.0 -159999.7
-312.0 -159999.7
-309.0 -159999.7
-308.0 -159999.7
-304.0 -159999.7
-292.0 -159999.7
-289.0 -159999.7
-281.0 -159999.8
-278.0 -159999.8
-276.0 -159999.8
-271.0 -159999.8
-262.0 -159999.8
-258.0 -159999.8
-250.0 -159999.8
-245.0 -159999.8
-243.0 -159999.8
-235.0 -159999.8
-232.0 -159999.8
-227.0 -159999.8
-225.0 -159999.8
-217.0 -159999.9
-215.0 -159999.9
-214.0 -159999.9
-210.0 -159999.9
-200.0 -159999.9
-196.0 -159999.9
-191.0 -159999.9
-187.0 -159999.9
-186.0 -159999.9
-181.0 -159999.9
-175.0 -159999.9
-169.0 -159999.9
-156.0 -159999.9
-150.0 -159999.9
-147.0 -159999.9
-143.0 -159999.9
-135.0 -159999.9
-132.0 -159999.9
-125.0 -160000.0
-121.0 -160000.0
-118.0 -160000.0
-113.0 -160000.0
-105.0 -160000.0
-102.0 -160000.0
-99.0 -160000.0
-96.0 -160000.0
-86.0 -160000.0
-83.0 -160000.0
-81.0 -160000.0
-71.0 -160000.0
-67.0 -160000.0
-60.0 -160000.0
-57.0 -160000.0
-55.0 -160000.0
-49.0 -160000.0
-43.0 -160000.0
-41.0 -160000.0
-37.0 -160000.0
-33.0 -160000.0
-32.0 -160000.0
-31.0 -160000.0
-26.0 -160000.0
-10.0 -160000.0
-1.0 -160000.0
1.0 -160000.0
10.0 -160000.0
17.0 -160000.0
19.0 -160000.0
21.0 -160000.0
29.0 -160000.0
33.0 -160000.0
36.0 -160000.0
40.0 -160000.0
46.0 -160000.0
51.0 -160000.0
59.0 -160000.0
63.0 -160000.0
65.0 -160000.0
70.0 -160000.0
83.0 -160000.0
86.0 -160000.0
92.0 -160000.0
94.0 -160000.0
99.0 -160000.0
102.0 -160000.0
108.0 -160000.0
111.0 -160000.0
121.0 -160000.0
124.0 -160000.0
125.0 -160000.0
139.0 -159999.9
141.0 -159999.9
142.0 -159999.9
146.0 -159999.9
153.0 -159999.9
158.0 -159999.9
160.0 -159999.9
166.0 -159999.9
175.0 -159999.9
180.0 -159999.9
181.0 -159999.9
187.0 -159999.9
192.0 -159999.9
195.0 -159999.9
200.0 -159999.9
208.0 -159999.9
212.0 -159999.9
220.0 -159999.8
221.0 -159999.8
232.0 -159999.8
239.0 -159999.8
242.0 -159999.8
245.0 -159999.8
248.0 -159999.8
256.0 -159999.8
257.0 -159999.8
263.0 -159999.8
270.0 -159999.8
278.0 -159999.8
280.0 -159999.8
282.0 -159999.8
288.0 -159999.7
292.0 -159999.7
296.0 -159999.7
304.0 -159999.7
307.0 -159999.7
311.0 -159999.7
318.0 -159999.7
325.0 -159999.7
327.0 -159999.7
331.0 -159999.7
338.0 -159999.6
343.0 -159999.6
349.0 -159999.6
354.0 -159999.6
356.0 -159999.6
361.0 -159999.6
369.0 -159999.6
371.0 -159999.6
378.0 -159999.6
385.0 -159999.5
386.0 -159999.5
395.0 -159999.5
397.0 -159999.5
400.0 -159999.5
409.0 -159999.5
415.0 -159999.5
416.0 -159999.5
420.0 -159999.4
429.0 -159999.4
433.0 -159999.4
437.0 -159999.4
444.0 -159999.4
448.0 -159999.4
452.0 -159999.4
456.0 -159999.4
464.0 -159999.3
466.0 -159999.3
478.0 -159999.3
482.0 -159999.3
484.0 -159999.3
485.0 -159999.3
490.0 -159999.2
500.0 -159999.2
504.0 -159999.2
506.0 -159999.2
515.0 -159999.2
519.0 -159999.2
526.0 -159999.1
529.0 -159999.1
532.0 -159999.1
539.0 -159999.1
541.0 -159999.1
546.0 -159999.1
554.0 -159999.0
559.0 -159999.0
563.0 -159999.0
565.0 -159999.0
577.0 -159999.0
579.0 -159999.0
583.0 -159998.9
589.0 -159998.9
595.0 -159998.9
603.0 -159998.9
604.0 -159998.9
605.0 -159998.9
612.0 -159998.8
629.0 -159998.8
630.0 -159998.8
635.0 -159998.7
637.0 -159998.7
647.0 -159998.7
651.0 -159998.7
652.0 -159998.7
656.0 -159998.7
659.0 -159998.6
661.0 -159998.6
669.0 -159998.6
670.0 -159998.6
678.0 -159998.6
684.0 -159998.5
689.0 -159998.5
691.0 -159998.5
697.0 -159998.5
704.0 -159998.5
712.0 -159998.4
727.0 -159998.3
728.0 -159998.3
730.0 -159998.3
741.0 -159998.3
742.0 -159998.3
743.0 -159998.3
747.0 -159998.3
749.0 -159998.2
753.0 -159998.2
755.0 -159998.2
765.0 -159998.2
773.0 -159998.1
777.0 -159998.1
779.0 -159998.1
784.0 -159998.1
786.0 -159998.1
792.0 -159998.0
795.0 -159998.0
801.0 -159998.0
805.0 -159998.0
812.0 -159997.9
815.0 -159997.9
823.0 -159997.9
825.0 -159997.9
830.0 -159997.8
836.0 -159997.8
842.0 -159997.8
846.0 -159997.8
850.0 -159997.7
855.0 -159997.7
866.0 -159997.7
879.0 -159997.6
883.0 -159997.6
887.0 -159997.5
890.0 -159997.5
892.0 -159997.5
897.0 -159997.5
898.0 -159997.5
904.0 -159997.4
907.0 -159997.4
910.0 -159997.4
917.0 -159997.4
926.0 -159997.3
927.0 -159997.3
934.0 -159997.3
935.0 -159997.3
946.0 -159997.2
950.0 -159997.2
956.0 -159997.1
957.0 -159997.1
973.0 -159997.0
1186.0 -159995.6
1197.0 -159995.5
1650.0 -159991.5
1760.0 -159990.3
1842.0 -159989.4
10931.0 -159626.2
13941.0 -159391.5
